; aiohttp :: corpus-study/repo_src/aiohttp/examples/token_refresh_middleware.py :: LOCK 'TokenRefreshMiddleware._refresh_lock' :: naive encoding (verdict: unsat)
; Generated by snf-pipeline (encoder.py) -- run with any
; SMT-LIB2-compliant solver, e.g. `z3 aiohttp__corpus-study_repo_src_aiohttp_examples_token_refresh_middleware.py__TokenRefreshMiddleware._refresh_lock__naive.smt2`
; benchmark generated from python API
(set-info :status unknown)
(assert
 false)
(check-sat)
